FC-Planner/src/hierarchical_coverage_planner/solution/global/global.tsp
NAME : global
TYPE : ATSP
DIMENSION : 5
EDGE_WEIGHT_TYPE : EXPLICIT
EDGE_WEIGHT_FORMAT : FULL_MATRIX
EDGE_WEIGHT_SECTION
0 3047 3179 3579 1402 
0 0 1816 1184 1899 
0 1816 0 1087 2057 
0 1184 1087 0 2427 
0 1899 2057 2427 0 
EOF