FC-Planner/src/hierarchical_coverage_planner/solution/global/global.txt
NAME : global.5572.tour
COMMENT : Length = 5572
COMMENT : Found by LKH [Keld Helsgaun] Fri Mar 14 03:42:40 2025
TYPE : TOUR
DIMENSION : 5
TOUR_SECTION
1
5
2
4
3
-1
EOF
